n_res = 4;
rc = [ 0, 0, 0, 0 ];
n_tasks = 30;
d = [ 4, 1, 8, 1, 10, 8, 4, 1, 10, 7, 9, 1, 4, 7, 10, 1, 6, 1, 8, 3, 10, 3, 7, 1, 9, 7, 4, 7, 6, 4 ];
rr = [| 0, 0, 0, 0, 0, 0, 0, 0, 0, 0, 0, 0, 0, 0, 0, 0, 0, 0, 0, 0, 0, 0, 0, 0, 0, 0, 0, 0, 0, 0
      | 0, 0, 0, 0, 0, 0, 0, 0, 0, 0, 0, 0, 0, 0, 0, 0, 0, 0, 0, 0, 0, 0, 0, 0, 0, 0, 0, 0, 0, 0
      | 0, 0, 0, 0, 0, 0, 0, 0, 0, 0, 0, 0, 0, 0, 0, 0, 0, 0, 0, 0, 0, 0, 0, 0, 0, 0, 0, 0, 0, 0
      | 0, 0, 0, 0, 0, 0, 0, 0, 0, 0, 0, 0, 0, 0, 0, 0, 0, 0, 0, 0, 0, 0, 0, 0, 0, 0, 0, 0, 0, 0 |];
suc = [ { 5 },
       { 4, 7 },
       { 14 },
       { 10, 20, 26 },
       { 6, 9, 13 },
       { 11 },
       { 8, 30 },
       { 21 },
       { 15, 19 },
       { 24 },
       { 12, 23 },
       { 17 },
       { 17, 22, 27 },
       { 25 },
       { 16, 24, 27 },
       { 18 },
       { 18, 28 },
       { 26 },
       { 24 },
       { 27 },
       { 23, 25, 28 },
       { 23 },
       { 29 },
       { 29 },
       { 29 },
       { 30 },
       { 28 },
       {  },
       {  },
       {  } ];
